Route #1: 31 54 20 73 45 46 51
Route #2: 49 65 70 30 75 29 32 71
Route #3: 68 14 41 36 39 18 10 16 42
Route #4: 23 11 44 64 53 25 66 60 17 21
Route #5: 77 26 40 61 13 48 59 55 3
Route #6: 6 62 50 19 28 47 56 38
Route #7: 58 63 35 9 4 33 74
Route #8: 27 15 22 8 12 34
Route #9: 43 69 24 67 72 1 52
Route #10: 2 37 76 7 57 5
cost 1659.164306640625